W=6;
H=7;

MAX_TIME=W*H;
MAX_TRACKS=19;

TARGET=(7,6);

TRAINS=[(4,2,LEFT),(6,3,TOP),(4,4,LEFT),(2,3,DOWN)];
DECOYS=[];

INIT_POS=[
(2,3,STRAIGHT_TD),
(4,2,STRAIGHT_RL),
(4,4,STRAIGHT_RL),
(5,1,ESWITCH_T_D_R),
(6,3,STRAIGHT_TD),
(6,5,ESWITCH_T_D_R),
(7,5,ESWITCH_L_R_T),
(7,6,STRAIGHT_RL),
];
TUNNEL_PAIRS=[];

GATES=[];
ACTIVATIONS=[];

DSWITCHES=[];
STATIONS=[];
